
  19    0


   0  12 2 3 4 5 6 7 8 14 15 16 17 18 
   9   3 13 10 9 
   2   3 11 10 9 
   9   3 11 10 9 
   8   1 12 
   1   1 10 
   7   1 9 
   3   1 9 
  10   1 19
   6   1 19
  10   1 19
  10   1 19
   9   1 19
   1   1 19
   1   1 19
  10   1 19
   2   1 19
   8   1 19
   0   0 
